
Gurobi 11.0.3 (mac64[x86]) logging started Wed Apr  9 18:01:47 2025

Set parameter LogFile to value "Results/Conservative_experiment/sanity_check_v32_0.log"
Set parameter TimeLimit to value 84600
Set parameter Method to value 2
Set parameter Crossover to value 0
Set parameter BarConvTol to value 1e-10
Gurobi Optimizer version 11.0.3 build v11.0.3rc0 (mac64[x86] - Darwin 23.4.0 23E214)

CPU model: Intel(R) Core(TM) i7-1060NG7 CPU @ 1.20GHz
Thread count: 4 physical cores, 8 logical processors, using up to 8 threads

Optimize a model with 3282976 rows, 3705248 columns and 14414000 nonzeros
Model fingerprint: 0x92e5da99
Coefficient statistics:
  Matrix range     [2e-01, 1e+00]
  Objective range  [6e-05, 2e+00]
  Bounds range     [0e+00, 0e+00]
  RHS range        [1e-02, 3e+03]
Presolve removed 1933088 rows and 2535312 columns (presolve time = 6s) ...
Presolve removed 2931387 rows and 3183568 columns (presolve time = 10s) ...
Presolve removed 2935383 rows and 3183616 columns
Presolve time: 11.29s
Presolved: 347593 rows, 521632 columns, 2382663 nonzeros
Ordering time: 0.04s

Barrier statistics:
 AA' NZ     : 1.346e+05
 Factor NZ  : 6.360e+05 (roughly 18 MB of memory)
 Factor Ops : 6.217e+07 (less than 1 second per iteration)
 Threads    : 4

                  Objective                Residual
Iter       Primal          Dual         Primal    Dual     Compl     Time
   0   3.26823810e+07  8.02001793e+07  8.62e+04 7.67e+00  2.04e+05    12s
   1   1.62188075e+07  5.66461833e+07  4.41e+04 4.52e+00  4.96e+04    12s
   2  -7.98162395e+05  2.43573127e+07  9.83e+03 8.34e-02  6.69e+03    12s
   3  -7.93495759e+05  2.94361434e+06  1.91e+03 9.27e-03  1.38e+03    12s
   4  -8.06987671e+04  3.92512196e+05  1.55e+02 1.59e-04  1.14e+02    12s
   5  -3.53087878e+04  2.53761261e+05  6.63e+01 5.21e-05  5.80e+01    12s
   6  -4.83559681e+03  1.05489148e+05  2.54e+01 9.97e-13  2.27e+01    12s
   7   3.11764121e+04  7.31410253e+04  4.03e+00 5.42e-13  5.72e+00    12s
   8   4.08703333e+04  5.67255702e+04  8.31e-01 2.29e-13  1.59e+00    12s
   9   4.34753057e+04  5.09619523e+04  3.61e-01 8.70e-14  6.92e-01    12s
  10   4.52324853e+04  4.80503909e+04  9.62e-02 9.41e-14  2.41e-01    12s
  11   4.59397319e+04  4.67561251e+04  2.77e-02 4.44e-14  6.87e-02    12s
  12   4.62300771e+04  4.65601596e+04  8.82e-03 3.02e-14  2.74e-02    12s
  13   4.63391584e+04  4.64908267e+04  3.29e-03 1.60e-14  1.25e-02    12s
  14   4.63841102e+04  4.64452318e+04  1.40e-03 1.42e-14  5.04e-03    12s
  15   4.64133182e+04  4.64293254e+04  3.37e-04 1.44e-13  1.32e-03    12s
  16   4.64231503e+04  4.64247781e+04  1.48e-05 2.31e-14  1.32e-04    12s
  17   4.64237607e+04  4.64241493e+04  2.85e-06 1.07e-14  3.13e-05    12s
  18   4.64238789e+04  4.64240715e+04  1.16e-06 1.60e-14  1.55e-05    12s
  19   4.64239415e+04  4.64240155e+04  3.34e-07 1.07e-14  5.94e-06    12s
  20   4.64239541e+04  4.64239915e+04  1.83e-07 1.42e-14  3.00e-06    12s
  21   4.64239646e+04  4.64239748e+04  6.37e-08 8.88e-15  8.22e-07    12s
  22   4.64239699e+04  4.64239708e+04  1.37e-08 2.13e-14  7.20e-08    12s
  23   4.64239707e+04  4.64239707e+04  8.69e-09 2.93e-14  7.72e-10    12s
  24   4.64239707e+04  4.64239707e+04  1.62e-10 2.20e-14  1.27e-12    12s

Barrier solved model in 24 iterations and 12.46 seconds (6.41 work units)
Optimal objective 4.64239707e+04

